proyfinal/src/viki/013/experimentInOfficeAgust.take6.output/c858eb3f-0393-40ad-bf8e-10fc1f37c6c8.als.dat
{'cnf.clauses': '118081',
 'cnf.totvars': '69608',
 'conflict literals': '61',
 'conflicts': '29',
 'decisions': '7190',
 'memused.mb': '15.17',
 'outcome': 'UNSAT',
 'propagations': '36159',
 'restarts': '1',
 'solver.msecs': 28,
 'task.msecs': 87}
