proyfinal/src/viki/013/experimentInOfficeAgust.take6.output/c858eb3f-0393-40ad-bf8e-10fc1f37c6c8.als.out
Reading from standard input... Use '--help' for help.
============================[ Problem Statistics ]=============================
|                                                                             |
|  Number of variables:         69608                                         |
|  Number of clauses:          118081                                         |
|  Parse time:                   0.02 s                                       |
|                                                                             |
============================[ Search Statistics ]==============================
| Conflicts |          ORIGINAL         |          LEARNT          | Progress |
|           |    Vars  Clauses Literals |    Limit  Clauses Lit/Cl |          |
===============================================================================
===============================================================================
restarts              : 1
conflicts             : 29             (1021 /sec)
decisions             : 7190           (0.00 % random) (253018 /sec)
propagations          : 36159          (1272443 /sec)
conflict literals     : 61             (0.00 % deleted)
Memory used           : 15.17 MB
CPU time              : 0.028417 s

UNSATISFIABLE
